     Program PWSCF v.6.5 starts on 10Aug2023 at 17:19:32

     R & G space division:  proc/nbgrp/npool/nimage =      20
     Waiting for input...
     Reading input from standard input
Warning: card &IONS ignored
Warning: card / ignored
Warning: card &CELL ignored
Warning: card / ignored
Warning: card &FCP ignored
Warning: card / ignored
Warning: card &RISM ignored
Warning: card / ignored

     Current dimensions of program PWSCF are:
     Max number of different atomic species (ntypx) = 10
     Max number of k-points (npk) =  40000
     Max angular momentum in pseudopotentials (lmaxx) =  3

     Subspace diagonalization in iterative solution of the eigenvalue problem:
     a serial algorithm will be used

     bravais-lattice index     =            0
     lattice parameter (alat)  =       6.6818  a.u.
     unit-cell volume          =     290.1790 (a.u.)^3
     number of atoms/cell      =            4
     number of atomic types    =            1
     number of electrons       =        16.00
     number of Kohn-Sham states=           12
     kinetic-energy cutoff     =      60.0000  Ry
     charge density cutoff     =     240.0000  Ry
     convergence threshold     =      1.0E-06
     mixing beta               =       0.7000
     number of iterations used =            8  plain     mixing
     Exchange-correlation= LDA
                           (   1   1   0   0   0   0   0)

     celldm(1)=   6.681804  celldm(2)=   0.000000  celldm(3)=   0.000000
     celldm(4)=   0.000000  celldm(5)=   0.000000  celldm(6)=   0.000000

     crystal axes: (cart. coord. in units of alat)
               a(1) = (   1.000000   0.000002  -0.000000 )
               a(2) = (  -0.220892   0.940813  -0.000000 )
               a(3) = (  -0.000000  -0.000000   1.033907 )

     reciprocal axes: (cart. coord. in units 2 pi/alat)
               b(1) = (  1.000000  0.234789  0.000000 )
               b(2) = ( -0.000002  1.062911  0.000000 )
               b(3) = (  0.000000  0.000000  0.967205 )

     PseudoPot. # 1 for Si read from file:
     /home/vr371/Projects/PP/ofpp/EAC/upf/blps/si.lda.upf
     MD5 check sum: 946fc5a8d23174f015515f8139e499ed
     Pseudo is Norm-conserving, Zval =  4.0
     DFTpy
     Using radial grid of 1601 points,  1 beta functions with:
                l(1) =   0

     atomic species   valence    mass     pseudopotential
        Si             4.00    28.08000     Si( 1.00)

     No symmetry found

   Cartesian axes

     site n.     atom                  positions (alat units)
         1           Si  tau(   1) = (  -0.0213118   0.2292110   0.3492838  )
         2           Si  tau(   2) = (   0.5007583   0.3977718   0.1437150  )
         3           Si  tau(   3) = (   0.0213140   0.5600303   0.8171531  )
         4           Si  tau(   4) = (   0.4992427   0.1364038   0.6038926  )

     number of k points=  4000  Gaussian smearing, width (Ry)=  0.0050

     Number of k-points >= 100: set verbosity='high' to print them.

     Initial potential from superposition of free atoms

     starting charge   15.99744, renormalised to   16.00000
     Starting wfcs are random

     Self-consistent Calculation

     iteration #  1     ecut=    60.00 Ry     beta= 0.70
     Davidson diagonalization with overlap
     ethr =  1.00E-02,  avg # of iterations =  7.4

     total energy              =     -31.42301433 Ry
     Harris-Foulkes estimate   =     -31.53325927 Ry
     estimated scf accuracy    <       0.18586571 Ry

[...]

     total energy              =     -31.47281908 Ry
     Harris-Foulkes estimate   =     -31.47282031 Ry
     estimated scf accuracy    <       0.00000286 Ry

     iteration #  6     ecut=    60.00 Ry     beta= 0.70
     Davidson diagonalization with overlap
     ethr =  1.79E-08,  avg # of iterations =  2.0

     End of self-consistent calculation

     Number of k-points >= 100: set verbosity='high' to print the bands.

     the Fermi energy is    14.7700 ev

!    total energy              =     -31.47281972 Ry
     Harris-Foulkes estimate   =     -31.47281972 Ry
     estimated scf accuracy    <       0.00000003 Ry

     The total energy is the sum of the following terms:

     one-electron contribution =      19.63272238 Ry
     hartree contribution      =       1.32922117 Ry
     xc contribution           =     -10.97474572 Ry
     ewald contribution        =     -41.45982081 Ry
     smearing contrib. (-TS)   =      -0.00019673 Ry

     convergence has been achieved in   6 iterations

 Energies determined by pw2casino tool
 Kinetic energy      7.75720647105408       au  =     15.5144129421082       Ry
 Local energy        2.05915471842399       au  =     4.11830943684799       Ry
 Non-Local energy   0.000000000000000E+000  au  =    0.000000000000000E+000  Ry
 Ewald energy       -20.7299104032288       au  =    -41.4598208064577       Ry
 xc contribution    -5.48737286159000       au  =    -10.9747457231800       Ry
 hartree energy     0.664610582804296       au  =     1.32922116560859       Ry
 Smearing (-TS)    -9.836676579070446E-005  au  =   -1.967335315814089E-004  Ry
 Total energy       -15.7364098593023       au  =    -31.4728197186045       Ry

Writing file si_0.5_1_4_Btin_hd.bwfn.data.b1 for program CASINO.

Blip grid: 18x18x18

 Transformed complex orbital k=1, spin=1, band=1 on node 0
 Transformed complex orbital k=1, spin=1, band=2 on node 1
 Transformed complex orbital k=1, spin=1, band=3 on node 2
 Transformed complex orbital k=1, spin=1, band=4 on node 3
 Transformed complex orbital k=1, spin=1, band=5 on node 4
 Transformed complex orbital k=1, spin=1, band=6 on node 5
 Transformed complex orbital k=1, spin=1, band=7 on node 6
 Transformed complex orbital k=1, spin=1, band=8 on node 7
 Transformed complex orbital k=1, spin=1, band=9 on node 8
 Transformed complex orbital k=1, spin=1, band=10 on node 9
 Transformed complex orbital k=1, spin=1, band=11 on node 10
 Transformed complex orbital k=1, spin=1, band=12 on node 11
 Transformed complex orbital k=2, spin=1, band=1 on node 12
 Transformed complex orbital k=2, spin=1, band=2 on node 13
 Transformed complex orbital k=2, spin=1, band=3 on node 14
 Transformed complex orbital k=2, spin=1, band=4 on node 15
 Transformed complex orbital k=2, spin=1, band=5 on node 16
 Transformed complex orbital k=2, spin=1, band=6 on node 17
 Transformed complex orbital k=2, spin=1, band=7 on node 18
 Transformed complex orbital k=2, spin=1, band=8 on node 19
 Transformed complex orbital k=2, spin=1, band=9 on node 0
 Transformed complex orbital k=2, spin=1, band=10 on node 1
 Transformed complex orbital k=2, spin=1, band=11 on node 2
 Transformed complex orbital k=2, spin=1, band=12 on node 3
 Transformed complex orbital k=3, spin=1, band=1 on node 4
 Transformed complex orbital k=3, spin=1, band=2 on node 5
 Transformed complex orbital k=3, spin=1, band=3 on node 6
 Transformed complex orbital k=3, spin=1, band=4 on node 7
 Transformed complex orbital k=3, spin=1, band=5 on node 8
 Transformed complex orbital k=3, spin=1, band=6 on node 9
 Transformed complex orbital k=3, spin=1, band=7 on node 10
 Transformed complex orbital k=3, spin=1, band=8 on node 11
 Transformed complex orbital k=3, spin=1, band=9 on node 12
 Transformed complex orbital k=3, spin=1, band=10 on node 13
 Transformed complex orbital k=3, spin=1, band=11 on node 14
 Transformed complex orbital k=3, spin=1, band=12 on node 15
 Transformed complex orbital k=4, spin=1, band=1 on node 16
 Transformed complex orbital k=4, spin=1, band=2 on node 17
 Transformed complex orbital k=4, spin=1, band=3 on node 18
 Transformed complex orbital k=4, spin=1, band=4 on node 19
 Transformed complex orbital k=4, spin=1, band=5 on node 0
 Transformed complex orbital k=4, spin=1, band=6 on node 1
 Transformed complex orbital k=4, spin=1, band=7 on node 2
 Transformed complex orbital k=4, spin=1, band=8 on node 3
 Transformed complex orbital k=4, spin=1, band=9 on node 4
 Transformed complex orbital k=4, spin=1, band=10 on node 5
 Transformed complex orbital k=4, spin=1, band=11 on node 6
 Transformed complex orbital k=4, spin=1, band=12 on node 7
 Transformed complex orbital k=5, spin=1, band=1 on node 8
 Transformed complex orbital k=5, spin=1, band=2 on node 9
 Transformed complex orbital k=5, spin=1, band=3 on node 10
 Transformed complex orbital k=5, spin=1, band=4 on node 11
 Transformed complex orbital k=5, spin=1, band=5 on node 12
 Transformed complex orbital k=5, spin=1, band=6 on node 13
 Transformed complex orbital k=5, spin=1, band=7 on node 14
 Transformed complex orbital k=5, spin=1, band=8 on node 15
 Transformed complex orbital k=5, spin=1, band=9 on node 16
 Transformed complex orbital k=5, spin=1, band=10 on node 17
 Transformed complex orbital k=5, spin=1, band=11 on node 18
 Transformed complex orbital k=5, spin=1, band=12 on node 19
[...]
 Transformed complex orbital k=3999, spin=1, band=10 on node 5
 Transformed complex orbital k=3999, spin=1, band=11 on node 6
 Transformed complex orbital k=3999, spin=1, band=12 on node 7
 Transformed complex orbital k=4000, spin=1, band=1 on node 8
 Transformed complex orbital k=4000, spin=1, band=2 on node 9
 Transformed complex orbital k=4000, spin=1, band=3 on node 10
 Transformed complex orbital k=4000, spin=1, band=4 on node 11
 Transformed complex orbital k=4000, spin=1, band=5 on node 12
 Transformed complex orbital k=4000, spin=1, band=6 on node 13
 Transformed complex orbital k=4000, spin=1, band=7 on node 14
 Transformed complex orbital k=4000, spin=1, band=8 on node 15
 Transformed complex orbital k=4000, spin=1, band=9 on node 16
 Transformed complex orbital k=4000, spin=1, band=10 on node 17
 Transformed complex orbital k=4000, spin=1, band=11 on node 18
 Transformed complex orbital k=4000, spin=1, band=12 on node 19

     Writing output data file ./si_0.5_1_4_Btin_hd.save/

     General routines

     Parallel routines

   This run was terminated on:  17:23:34  10Aug2023

   JOB DONE.